LatticeConstant 1.0 Ang
%block LatticeVectors
 15.25076600 0.00000000 0.00000000
 0.00000000 19.04207000 0.00000000
 0.00000000 0.00000000 15.64893500
%endblock LatticeVectors

NumberOfAtoms 36
AtomicCoordinatesFormat Ang
%block AtomicCoordinatesAndAtomicSpecies
  5.96594164  5.06074969  3.71065519 1 #  1: N
  6.55204064  3.82309069  4.10171019 2 #  2: C
  7.83890864  3.57296069  3.28270019 2 #  3: C
  8.71511664  4.65891469  3.04041819 1 #  4: N
  8.34714064  5.69754869  3.95785319 2 #  5: C
  6.85513264  6.11973169  3.89014719 2 #  6: C
  6.69150264  7.01809769  3.30808919 3 #  7: H
  6.45480164  6.70154769  5.41776619 2 #  8: C
  8.66222064  5.41136969  5.00796719 3 #  9: H
  9.00985164  6.63684269  3.68546819 3 # 10: H
  8.62347364  5.08655569  2.13494519 3 # 11: H
  8.42879864  2.67775869  3.80264919 3 # 12: H
  7.49320364  3.18938669  2.23367619 3 # 13: H
  6.80385964  3.74246469  5.27131319 3 # 14: H
  5.83032664  2.90576869  3.95432519 3 # 15: H
  5.08996464  5.20454969  4.32427719 3 # 16: H
  7.84229564  7.22893069  5.89232019 2 # 17: C
  6.27747064  5.76565269  5.96926519 3 # 18: H
  5.25643864  7.44724869  5.16442219 2 # 19: C
  8.24107764  6.38216969  6.52694619 3 # 20: H
  8.42439864  7.20464069  5.03155019 3 # 21: H
  8.39436364  8.56609569  6.38600419 2 # 22: C
  4.39551764  6.96435369  5.76452819 3 # 23: H
  5.11032064  9.01616069  5.25190019 2 # 24: C
  4.93898164  7.30123069  4.06311419 3 # 25: H
  8.94115364  8.28531869  7.39066819 3 # 26: H
  9.31496964  8.74939069  5.66662419 3 # 27: H
  6.05866464  9.83952369  6.26964319 2 # 28: C
  5.28208864  9.46879769  4.26019719 3 # 29: H
  4.06420364  9.21081569  5.56402619 3 # 30: H
  5.39456464  9.97313569  7.24673519 3 # 31: H
  5.92625664 10.91789969  5.75678319 3 # 32: H
  7.47690864  9.76076369  6.61491319 2 # 33: C
  7.46843464  9.75627769  7.78388019 3 # 34: H
  8.27800664 10.93442669  6.18372519 4 # 35: O
  7.55159964 11.71982869  6.08879219 3 # 36: H
%endblock AtomicCoordinatesAndAtomicSpecies

NumberOfSpecies 4
%block ChemicalSpeciesLabel
 1 7 N
 2 6 C
 3 1 H
 4 8 O
%endblock ChemicalSpeciesLabel
